RLT05
Position Depot: Center
Horizon for Depot: Large
Position of customers: Random
Distribution of the demand: Small
Width of time windows: Tight
Distribution of the service: Small

VEHICLE 
NUMBER 	 CAPACITY 
 5 	 	 71 
 
CUSTOMER
CUST NO. 	 XCOORD.  	 YCOORD. 	 DEMAND 	 READY TIME 	 DUE DATE 	 SERVICE TIME 
 0 	 	 500 	 	 500 	 	 0 	 	 0 	 	 3761 	 	 0 
  1 	 	 270 	 	 942 	 	 7 	 	 1026 	 	 1149 	 	 53 
  2 	 	 29 	 	 895 	 	 5 	 	 2486 	 	 2648 	 	 52 
  3 	 	 211 	 	 78 	 	 7 	 	 1788 	 	 1915 	 	 57 
  4 	 	 252 	 	 689 	 	 5 	 	 761 	 	 818 	 	 62 
  5 	 	 651 	 	 927 	 	 6 	 	 2524 	 	 2580 	 	 78 
  6 	 	 746 	 	 29 	 	 9 	 	 845 	 	 1016 	 	 61 
  7 	 	 857 	 	 544 	 	 5 	 	 874 	 	 959 	 	 54 
  8 	 	 16 	 	 892 	 	 6 	 	 1213 	 	 1410 	 	 55 
  9 	 	 529 	 	 552 	 	 7 	 	 722 	 	 873 	 	 50 
  10 	 	 556 	 	 286 	 	 7 	 	 966 	 	 1154 	 	 74 
  11 	 	 894 	 	 413 	 	 9 	 	 2072 	 	 2258 	 	 79 
  12 	 	 285 	 	 90 	 	 6 	 	 3025 	 	 3197 	 	 86 
  13 	 	 403 	 	 136 	 	 9 	 	 761 	 	 945 	 	 51 
  14 	 	 529 	 	 52 	 	 7 	 	 539 	 	 645 	 	 70 
  15 	 	 406 	 	 41 	 	 8 	 	 2896 	 	 3067 	 	 82 
  16 	 	 900 	 	 803 	 	 5 	 	 3240 	 	 3298 	 	 58 
  17 	 	 568 	 	 420 	 	 9 	 	 1500 	 	 1689 	 	 67 
  18 	 	 606 	 	 45 	 	 6 	 	 731 	 	 858 	 	 95 
  19 	 	 389 	 	 980 	 	 7 	 	 3579 	 	 3761 	 	 51 
  20 	 	 954 	 	 583 	 	 7 	 	 687 	 	 874 	 	 83 
  21 	 	 758 	 	 546 	 	 6 	 	 905 	 	 977 	 	 63 
  22 	 	 491 	 	 168 	 	 5 	 	 2617 	 	 2770 	 	 68 
  23 	 	 15 	 	 154 	 	 5 	 	 3405 	 	 3465 	 	 95 
  24 	 	 601 	 	 440 	 	 8 	 	 664 	 	 769 	 	 86 
  25 	 	 479 	 	 831 	 	 10 	 	 364 	 	 517 	 	 64 
  26 	 	 64 	 	 130 	 	 7 	 	 1986 	 	 2157 	 	 81 
  27 	 	 524 	 	 676 	 	 7 	 	 1672 	 	 1871 	 	 65 
  28 	 	 866 	 	 974 	 	 8 	 	 987 	 	 1140 	 	 72 
  29 	 	 395 	 	 821 	 	 9 	 	 864 	 	 1010 	 	 89 
  30 	 	 886 	 	 108 	 	 6 	 	 2744 	 	 2882 	 	 54 
  31 	 	 26 	 	 429 	 	 9 	 	 1990 	 	 2055 	 	 98 
  32 	 	 471 	 	 922 	 	 5 	 	 2507 	 	 2616 	 	 79 
  33 	 	 359 	 	 524 	 	 5 	 	 3570 	 	 3705 	 	 93 
  34 	 	 37 	 	 283 	 	 9 	 	 2078 	 	 2213 	 	 58 
  35 	 	 585 	 	 171 	 	 8 	 	 2750 	 	 2879 	 	 95 
  36 	 	 453 	 	 747 	 	 6 	 	 1930 	 	 2078 	 	 51 
  37 	 	 983 	 	 513 	 	 7 	 	 431 	 	 554 	 	 66 
  38 	 	 25 	 	 579 	 	 5 	 	 1238 	 	 1419 	 	 92 
  39 	 	 185 	 	 224 	 	 7 	 	 2996 	 	 3066 	 	 60 
  40 	 	 466 	 	 380 	 	 8 	 	 2525 	 	 2690 	 	 93 
  41 	 	 483 	 	 680 	 	 10 	 	 3428 	 	 3504 	 	 86 
  42 	 	 500 	 	 576 	 	 5 	 	 2716 	 	 2774 	 	 53 
  43 	 	 19 	 	 285 	 	 5 	 	 1035 	 	 1164 	 	 61 
  44 	 	 550 	 	 488 	 	 9 	 	 2870 	 	 3006 	 	 51 
  45 	 	 465 	 	 894 	 	 7 	 	 918 	 	 1025 	 	 72 
  46 	 	 752 	 	 865 	 	 10 	 	 432 	 	 487 	 	 78 
  47 	 	 524 	 	 202 	 	 8 	 	 579 	 	 674 	 	 64 
  48 	 	 83 	 	 404 	 	 5 	 	 647 	 	 778 	 	 50 
  49 	 	 465 	 	 551 	 	 9 	 	 2110 	 	 2201 	 	 52 
  50 	 	 857 	 	 432 	 	 6 	 	 3280 	 	 3395 	 	 93 
 